************************************************************************
file with basedata            : md354_.bas
initial value random generator: 587398771
************************************************************************
projects                      :  1
jobs (incl. supersource/sink ):  22
horizon                       :  155
RESOURCES
  - renewable                 :  2   R
  - nonrenewable              :  2   N
  - doubly constrained        :  0   D
************************************************************************
PROJECT INFORMATION:
pronr.  #jobs rel.date duedate tardcost  MPM-Time
    1     20      0       22       12       22
************************************************************************
PRECEDENCE RELATIONS:
jobnr.    #modes  #successors   successors
   1        1          3           2   3   4
   2        3          2           8  12
   3        3          1           9
   4        3          3           5  10  21
   5        3          3           6   7  14
   6        3          2           9  15
   7        3          3          12  13  15
   8        3          2           9  18
   9        3          1          16
  10        3          3          11  12  15
  11        3          2          13  18
  12        3          1          20
  13        3          2          16  17
  14        3          2          17  19
  15        3          3          16  17  18
  16        3          1          19
  17        3          1          20
  18        3          2          19  20
  19        3          1          22
  20        3          1          22
  21        3          1          22
  22        1          0        
************************************************************************
REQUESTS/DURATIONS:
jobnr. mode duration  R 1  R 2  N 1  N 2
------------------------------------------------------------------------
  1      1     0       0    0    0    0
  2      1     4       8    0    9    7
         2     4       0    8    9    6
         3    10       0    8    8    5
  3      1     1       0    8   10    5
         2     3       9    0   10    5
         3     6       6    0   10    5
  4      1     2       0   10   10    7
         2     4       3    0    9    4
         3     6       1    0    9    4
  5      1     2       5    0    8    5
         2     2       0    5    8    5
         3     4       0    2    4    3
  6      1     4       7    0    6    2
         2     5       0   10    4    2
         3     6       5    0    3    1
  7      1     5       4    0    9   10
         2     8       2    0    5    6
         3    10       0    2    1    2
  8      1     1       7    0    2    8
         2     8       0    8    1    6
         3    10       0    8    1    5
  9      1     1       6    0    8   10
         2     3       0    4    7    9
         3     9       6    0    4    9
 10      1     2       6    0    6   10
         2     6       6    0    6    6
         3     8       0    7    5    1
 11      1     1       0    4   10    9
         2     4       6    0    8    8
         3     6       3    0    6    6
 12      1     1       0    7    9    1
         2     4       2    0    8    1
         3     4       0    7    8    1
 13      1     2       0    6    9    4
         2     2       6    0    9    4
         3     7       0    6    7    3
 14      1     6       0    3    8    6
         2     9       8    0    6    5
         3     9       0    2    4    4
 15      1     4       4    0    8    9
         2     6       3    0    7    8
         3     7       0    7    7    6
 16      1     1       0    6    3   10
         2     6       2    0    3    9
         3     7       0    2    2    9
 17      1     2       9    0    6    5
         2     7       8    0    6    2
         3    10       7    0    3    1
 18      1     4       3    0    6    8
         2     7       0    2    5    4
         3    10       0    2    2    3
 19      1     5       0    4    8    2
         2     5       6    0    8    2
         3     8       2    0    8    1
 20      1     2      10    0    6    8
         2     6       7    0    5    8
         3     8       7    0    4    7
 21      1     2       0    6   10    9
         2     9       0    5    9    7
         3    10       0    2    9    7
 22      1     0       0    0    0    0
************************************************************************
RESOURCEAVAILABILITIES:
  R 1  R 2  N 1  N 2
   16   16  117   96
************************************************************************
MAXIMAL LAGS:
from  to  type  delay
    1   22   ES      0
    1    2   ES      0
    2   22   ES      0
    1    3   ES      0
    3   22   ES      0
    1    4   ES      0
    4   22   ES      0
    1    5   ES      0
    5   22   ES      0
    1    6   ES      0
    6   22   ES      0
    1    7   ES      0
    7   22   ES      0
    1    8   ES      0
    8   22   ES      0
    1    9   ES      0
    9   22   ES      0
    1   10   ES      0
   10   22   ES      0
    1   11   ES      0
   11   22   ES      0
    1   12   ES      0
   12   22   ES      0
    1   13   ES      0
   13   22   ES      0
    1   14   ES      0
   14   22   ES      0
    1   15   ES      0
   15   22   ES      0
    1   16   ES      0
   16   22   ES      0
    1   17   ES      0
   17   22   ES      0
    1   18   ES      0
   18   22   ES      0
    1   19   ES      0
   19   22   ES      0
    1   20   ES      0
   20   22   ES      0
    1   21   ES      0
   21   22   ES      0
    1   22   ES      0
    2    8   SS      0
    2    8   SE      0
    2    8   ES     -9
    2    8   EE     -9
    2   12   SS     -2
    2   12   SE      5
    2   12   ES     -4
    2   12   EE      5
    3    9   SS     -2
    3    9   SE      5
    3    9   ES    -11
    3    9   EE     -2
    4    5   SS     -7
    4    5   SE      0
    4    5   ES     -5
    4    5   EE     -7
    4   10   SS      9
    4   10   SE     -9
    4   10   ES     -9
    4   10   EE      7
    4   21   SS      8
    4   21   SE      0
    4   21   ES    -11
    4   21   EE     -3
    5    6   SS      2
    5    6   SE      9
    5    6   ES      9
    5    6   EE     -7
    5    7   SS     -8
    5    7   SE    -12
    5    7   ES     -2
    5    7   EE     -5
    5   14   SS      7
    5   14   SE      3
    5   14   ES      9
    5   14   EE    -12
    6    9   SS      3
    6    9   SE      3
    6    9   ES     -4
    6    9   EE     -1
    6   15   SS     10
    6   15   SE     -4
    6   15   ES     -3
    6   15   EE      3
    7   12   SS     11
    7   12   SE     10
    7   12   ES    -11
    7   12   EE      5
    7   13   SS      9
    7   13   SE      9
    7   13   ES     12
    7   13   EE     -8
    7   15   SS      8
    7   15   SE     -6
    7   15   ES    -10
    7   15   EE      2
    8    9   SS     12
    8    9   SE    -10
    8    9   ES     -3
    8    9   EE      0
    8   18   SS     11
    8   18   SE    -10
    8   18   ES      7
    8   18   EE      6
    9   16   SS     -2
    9   16   SE     11
    9   16   ES     -5
    9   16   EE      6
   10   11   SS     -4
   10   11   SE      1
   10   11   ES      3
   10   11   EE      0
   10   12   SS      1
   10   12   SE     -8
   10   12   ES      1
   10   12   EE     -7
   10   15   SS     -5
   10   15   SE     -2
   10   15   ES     10
   10   15   EE     12
   11   13   SS      6
   11   13   SE      0
   11   13   ES    -12
   11   13   EE     -1
   11   18   SS     -5
   11   18   SE    -12
   11   18   ES     -8
   11   18   EE     11
   12   20   SS      0
   12   20   SE    -10
   12   20   ES     11
   12   20   EE      5
   13   16   SS     -3
   13   16   SE    -12
   13   16   ES     -8
   13   16   EE     -1
   13   17   SS      3
   13   17   SE      5
   13   17   ES      2
   13   17   EE    -12
   14   17   SS     -6
   14   17   SE      0
   14   17   ES      4
   14   17   EE      0
   14   19   SS    -11
   14   19   SE     -2
   14   19   ES    -11
   14   19   EE      0
   15   16   SS     -5
   15   16   SE    -11
   16   15   SE      0
   15   16   ES      0
   15   16   EE      0
   15   17   SS     -5
   15   17   SE      1
   15   17   ES    -12
   15   17   EE     -1
   15   18   SS    -11
   15   18   SE     -8
   15   18   ES     11
   15   18   EE      4
   16   19   SS      8
   16   19   SE    -10
   16   19   ES      8
   16   19   EE      8
   17   20   SS      1
   17   20   SE     -4
   17   20   ES    -12
   17   20   EE      7
   18   19   SS      5
   18   19   SE      6
   18   19   ES     -9
   18   19   EE    -12
   18   20   SS     -6
   18   20   SE      6
   18   20   ES    -11
   18   20   EE      6
************************************************************************
